2609
1182
1595
1971
4166
1873
3672
2397
527
3271
1875
2634
2167
2347
1702
2988
375
460
2120
3535
680
3373
651
2415
1223
1840
2268
397
1630
2360
3487
2911
152
1241
880
835
2096
3562
1813
3064
3082
1364
2263
3572
3381
271
864
3781
2829
411
1770
1737
3208
2748
1296
2137
2732
1688
3312
3700
2600
2256
387
1972
2206
531
1498
1963
2705
976
2526
3232
553
1467
1330
1858
3874
2151
1702
2964
3066
422
1604
3453
2334
2249
2974
322
2224
2779
3828
2325
4184
1887
707
1781
1263
777
3353
1279
